\* Source Pyomo model name=unknown *\

min 
obj:
+1 y(1_2_1)
+1 z(1_2_1)
+1 y(1_2_2)
+1 z(1_2_2)
+1 y(1_2_3)
+1 z(1_2_3)
+1 y(1_3_1)
+1 z(1_3_1)
+1 y(1_3_2)
+1 z(1_3_2)
+1 y(1_3_3)
+1 z(1_3_3)
+1 y(1_4_1)
+1 z(1_4_1)
+1 y(1_4_2)
+1 z(1_4_2)
+1 y(1_4_3)
+1 z(1_4_3)
+1 y(2_3_1)
+1 z(2_3_1)
+1 y(2_3_2)
+1 z(2_3_2)
+1 y(2_3_3)
+1 z(2_3_3)
+1 y(2_4_1)
+1 z(2_4_1)
+1 y(2_4_2)
+1 z(2_4_2)
+1 y(2_4_3)
+1 z(2_4_3)
+1 y(3_4_1)
+1 z(3_4_1)
+1 y(3_4_2)
+1 z(3_4_2)
+1 y(3_4_3)
+1 z(3_4_3)

s.t.

c_e_constraints(1)_:
+1 x(1_1_1)
= 0

c_e_constraints(2)_:
+1 x(1_1_2)
= 0

c_e_constraints(3)_:
+1 x(1_1_3)
= 0

c_e_constraints(4)_:
+1 x(2_1_1)
= 0

c_e_constraints(5)_:
+1 x(2_1_2)
= 0

c_e_constraints(6)_:
+1 x(2_1_3)
= 0

c_e_constraints(7)_:
+1 x(2_2_1)
= 0

c_e_constraints(8)_:
+1 x(2_2_2)
= 0

c_e_constraints(9)_:
+1 x(2_2_3)
= 0

c_e_constraints(10)_:
+1 x(3_1_1)
= 0

c_e_constraints(11)_:
+1 x(3_1_2)
= 0

c_e_constraints(12)_:
+1 x(3_1_3)
= 0

c_e_constraints(13)_:
+1 x(3_2_1)
= 0

c_e_constraints(14)_:
+1 x(3_2_2)
= 0

c_e_constraints(15)_:
+1 x(3_2_3)
= 0

c_e_constraints(16)_:
+1 x(3_3_1)
= 0

c_e_constraints(17)_:
+1 x(3_3_2)
= 0

c_e_constraints(18)_:
+1 x(3_3_3)
= 0

c_e_constraints(19)_:
+1 x(4_1_1)
= 0

c_e_constraints(20)_:
+1 x(4_1_2)
= 0

c_e_constraints(21)_:
+1 x(4_1_3)
= 0

c_e_constraints(22)_:
+1 x(4_2_1)
= 0

c_e_constraints(23)_:
+1 x(4_2_2)
= 0

c_e_constraints(24)_:
+1 x(4_2_3)
= 0

c_e_constraints(25)_:
+1 x(4_3_1)
= 0

c_e_constraints(26)_:
+1 x(4_3_2)
= 0

c_e_constraints(27)_:
+1 x(4_3_3)
= 0

c_e_constraints(28)_:
+1 x(4_4_1)
= 0

c_e_constraints(29)_:
+1 x(4_4_2)
= 0

c_e_constraints(30)_:
+1 x(4_4_3)
= 0

c_e_constraints(31)_:
+1 x(1_1_1)
= 0

c_e_constraints(32)_:
+1 x(2_2_1)
= 0

c_e_constraints(33)_:
+1 x(3_3_1)
= 0

c_e_constraints(34)_:
+1 x(4_4_1)
= 0

c_e_constraints(35)_:
+1 x(1_1_2)
= 0

c_e_constraints(36)_:
+1 x(2_2_2)
= 0

c_e_constraints(37)_:
+1 x(3_3_2)
= 0

c_e_constraints(38)_:
+1 x(4_4_2)
= 0

c_e_constraints(39)_:
+1 x(1_1_3)
= 0

c_e_constraints(40)_:
+1 x(2_2_3)
= 0

c_e_constraints(41)_:
+1 x(3_3_3)
= 0

c_e_constraints(42)_:
+1 x(4_4_3)
= 0

c_e_constraints(43)_:
+1 x(2_1_1)
+1 x(2_1_2)
+1 x(2_1_3)
+1 x(1_2_1)
+1 x(1_2_2)
+1 x(1_2_3)
= 1

c_e_constraints(44)_:
+1 x(3_1_1)
+1 x(3_1_2)
+1 x(3_1_3)
+1 x(1_3_1)
+1 x(1_3_2)
+1 x(1_3_3)
= 1

c_e_constraints(45)_:
+1 x(4_1_1)
+1 x(4_1_2)
+1 x(4_1_3)
+1 x(1_4_1)
+1 x(1_4_2)
+1 x(1_4_3)
= 1

c_e_constraints(46)_:
+1 x(3_2_1)
+1 x(3_2_2)
+1 x(3_2_3)
+1 x(2_3_1)
+1 x(2_3_2)
+1 x(2_3_3)
= 1

c_e_constraints(47)_:
+1 x(4_2_1)
+1 x(4_2_2)
+1 x(4_2_3)
+1 x(2_4_1)
+1 x(2_4_2)
+1 x(2_4_3)
= 1

c_e_constraints(48)_:
+1 x(4_3_1)
+1 x(4_3_2)
+1 x(4_3_3)
+1 x(3_4_1)
+1 x(3_4_2)
+1 x(3_4_3)
= 1

c_e_constraints(49)_:
+1 x(2_1_1)
+1 x(3_1_1)
+1 x(4_1_1)
+1 x(1_2_1)
+1 x(1_3_1)
+1 x(1_4_1)
= 1

c_e_constraints(50)_:
+1 x(2_1_2)
+1 x(3_1_2)
+1 x(4_1_2)
+1 x(1_2_2)
+1 x(1_3_2)
+1 x(1_4_2)
= 1

c_e_constraints(51)_:
+1 x(2_1_3)
+1 x(3_1_3)
+1 x(4_1_3)
+1 x(1_2_3)
+1 x(1_3_3)
+1 x(1_4_3)
= 1

c_e_constraints(52)_:
+1 x(2_1_1)
+1 x(3_2_1)
+1 x(4_2_1)
+1 x(1_2_1)
+1 x(2_3_1)
+1 x(2_4_1)
= 1

c_e_constraints(53)_:
+1 x(2_1_2)
+1 x(3_2_2)
+1 x(4_2_2)
+1 x(1_2_2)
+1 x(2_3_2)
+1 x(2_4_2)
= 1

c_e_constraints(54)_:
+1 x(2_1_3)
+1 x(3_2_3)
+1 x(4_2_3)
+1 x(1_2_3)
+1 x(2_3_3)
+1 x(2_4_3)
= 1

c_e_constraints(55)_:
+1 x(3_1_1)
+1 x(3_2_1)
+1 x(4_3_1)
+1 x(1_3_1)
+1 x(2_3_1)
+1 x(3_4_1)
= 1

c_e_constraints(56)_:
+1 x(3_1_2)
+1 x(3_2_2)
+1 x(4_3_2)
+1 x(1_3_2)
+1 x(2_3_2)
+1 x(3_4_2)
= 1

c_e_constraints(57)_:
+1 x(3_1_3)
+1 x(3_2_3)
+1 x(4_3_3)
+1 x(1_3_3)
+1 x(2_3_3)
+1 x(3_4_3)
= 1

c_e_constraints(58)_:
+1 x(4_1_1)
+1 x(4_2_1)
+1 x(4_3_1)
+1 x(1_4_1)
+1 x(2_4_1)
+1 x(3_4_1)
= 1

c_e_constraints(59)_:
+1 x(4_1_2)
+1 x(4_2_2)
+1 x(4_3_2)
+1 x(1_4_2)
+1 x(2_4_2)
+1 x(3_4_2)
= 1

c_e_constraints(60)_:
+1 x(4_1_3)
+1 x(4_2_3)
+1 x(4_3_3)
+1 x(1_4_3)
+1 x(2_4_3)
+1 x(3_4_3)
= 1

c_e_constraints(61)_:
+1 d1(1_2_1)
-1 d2(1_2_1)
= 0

c_e_constraints(62)_:
-3 x(2_1_1)
-1 x(3_1_1)
-3 x(4_1_1)
+3 x(4_2_1)
-3 x(1_2_1)
-1 x(1_3_1)
-3 x(1_4_1)
+3 x(2_4_1)
+1 d1(1_2_2)
-1 d2(1_2_2)
= 0

c_e_constraints(63)_:
-3 x(2_1_1)
-3 x(2_1_2)
-1 x(3_1_1)
-1 x(3_1_2)
-3 x(4_1_1)
-3 x(4_1_2)
+3 x(4_2_1)
+3 x(4_2_2)
-3 x(1_2_1)
-3 x(1_2_2)
-1 x(1_3_1)
-1 x(1_3_2)
-3 x(1_4_1)
-3 x(1_4_2)
+3 x(2_4_1)
+3 x(2_4_2)
+1 d1(1_2_3)
-1 d2(1_2_3)
= 0

c_e_constraints(64)_:
+1 d1(1_3_1)
-1 d2(1_3_1)
= 0

c_e_constraints(65)_:
-3 x(2_1_1)
+3 x(3_2_1)
-3 x(4_1_1)
-3 x(1_2_1)
-3 x(1_4_1)
+3 x(2_3_1)
+1 d1(1_3_2)
-1 d2(1_3_2)
= 0

c_e_constraints(66)_:
-3 x(2_1_1)
-3 x(2_1_2)
+3 x(3_2_1)
+3 x(3_2_2)
-3 x(4_1_1)
-3 x(4_1_2)
-3 x(1_2_1)
-3 x(1_2_2)
-3 x(1_4_1)
-3 x(1_4_2)
+3 x(2_3_1)
+3 x(2_3_2)
+1 d1(1_3_3)
-1 d2(1_3_3)
= 0

c_e_constraints(67)_:
+1 d1(1_4_1)
-1 d2(1_4_1)
= 0

c_e_constraints(68)_:
-3 x(2_1_1)
-1 x(3_1_1)
-3 x(4_1_1)
+3 x(4_3_1)
-3 x(1_2_1)
-1 x(1_3_1)
-3 x(1_4_1)
+3 x(3_4_1)
+1 d1(1_4_2)
-1 d2(1_4_2)
= 0

c_e_constraints(69)_:
-3 x(2_1_1)
-3 x(2_1_2)
-1 x(3_1_1)
-1 x(3_1_2)
-3 x(4_1_1)
-3 x(4_1_2)
+3 x(4_3_1)
+3 x(4_3_2)
-3 x(1_2_1)
-3 x(1_2_2)
-1 x(1_3_1)
-1 x(1_3_2)
-3 x(1_4_1)
-3 x(1_4_2)
+3 x(3_4_1)
+3 x(3_4_2)
+1 d1(1_4_3)
-1 d2(1_4_3)
= 0

c_e_constraints(70)_:
+1 d1(2_3_1)
-1 d2(2_3_1)
= 0

c_e_constraints(71)_:
+1 x(3_1_1)
+3 x(3_2_1)
-3 x(4_2_1)
+1 x(1_3_1)
+3 x(2_3_1)
-3 x(2_4_1)
+1 d1(2_3_2)
-1 d2(2_3_2)
= 0

c_e_constraints(72)_:
+1 x(3_1_1)
+1 x(3_1_2)
+3 x(3_2_1)
+3 x(3_2_2)
-3 x(4_2_1)
-3 x(4_2_2)
+1 x(1_3_1)
+1 x(1_3_2)
+3 x(2_3_1)
+3 x(2_3_2)
-3 x(2_4_1)
-3 x(2_4_2)
+1 d1(2_3_3)
-1 d2(2_3_3)
= 0

c_e_constraints(73)_:
+1 d1(2_4_1)
-1 d2(2_4_1)
= 0

c_e_constraints(74)_:
-3 x(4_2_1)
+3 x(4_3_1)
-3 x(2_4_1)
+3 x(3_4_1)
+1 d1(2_4_2)
-1 d2(2_4_2)
= 0

c_e_constraints(75)_:
-3 x(4_2_1)
-3 x(4_2_2)
+3 x(4_3_1)
+3 x(4_3_2)
-3 x(2_4_1)
-3 x(2_4_2)
+3 x(3_4_1)
+3 x(3_4_2)
+1 d1(2_4_3)
-1 d2(2_4_3)
= 0

c_e_constraints(76)_:
+1 d1(3_4_1)
-1 d2(3_4_1)
= 0

c_e_constraints(77)_:
-1 x(3_1_1)
-3 x(3_2_1)
+3 x(4_3_1)
-1 x(1_3_1)
-3 x(2_3_1)
+3 x(3_4_1)
+1 d1(3_4_2)
-1 d2(3_4_2)
= 0

c_e_constraints(78)_:
-1 x(3_1_1)
-1 x(3_1_2)
-3 x(3_2_1)
-3 x(3_2_2)
+3 x(4_3_1)
+3 x(4_3_2)
-1 x(1_3_1)
-1 x(1_3_2)
-3 x(2_3_1)
-3 x(2_3_2)
+3 x(3_4_1)
+3 x(3_4_2)
+1 d1(3_4_3)
-1 d2(3_4_3)
= 0

c_u_constraints(79)_:
-200 x(1_1_1)
+1 y(1_1_1)
<= 0

c_u_constraints(80)_:
-200 x(1_1_2)
+1 y(1_1_2)
<= 0

c_u_constraints(81)_:
-200 x(1_1_3)
+1 y(1_1_3)
<= 0

c_u_constraints(82)_:
+1 y(1_2_1)
-200 x(1_2_1)
<= 0

c_u_constraints(83)_:
+1 y(1_2_2)
-200 x(1_2_2)
<= 0

c_u_constraints(84)_:
+1 y(1_2_3)
-200 x(1_2_3)
<= 0

c_u_constraints(85)_:
+1 y(1_3_1)
-200 x(1_3_1)
<= 0

c_u_constraints(86)_:
+1 y(1_3_2)
-200 x(1_3_2)
<= 0

c_u_constraints(87)_:
+1 y(1_3_3)
-200 x(1_3_3)
<= 0

c_u_constraints(88)_:
+1 y(1_4_1)
-200 x(1_4_1)
<= 0

c_u_constraints(89)_:
+1 y(1_4_2)
-200 x(1_4_2)
<= 0

c_u_constraints(90)_:
+1 y(1_4_3)
-200 x(1_4_3)
<= 0

c_u_constraints(91)_:
-200 x(2_1_1)
+1 y(2_1_1)
<= 0

c_u_constraints(92)_:
-200 x(2_1_2)
+1 y(2_1_2)
<= 0

c_u_constraints(93)_:
-200 x(2_1_3)
+1 y(2_1_3)
<= 0

c_u_constraints(94)_:
-200 x(2_2_1)
+1 y(2_2_1)
<= 0

c_u_constraints(95)_:
-200 x(2_2_2)
+1 y(2_2_2)
<= 0

c_u_constraints(96)_:
-200 x(2_2_3)
+1 y(2_2_3)
<= 0

c_u_constraints(97)_:
+1 y(2_3_1)
-200 x(2_3_1)
<= 0

c_u_constraints(98)_:
+1 y(2_3_2)
-200 x(2_3_2)
<= 0

c_u_constraints(99)_:
+1 y(2_3_3)
-200 x(2_3_3)
<= 0

c_u_constraints(100)_:
+1 y(2_4_1)
-200 x(2_4_1)
<= 0

c_u_constraints(101)_:
+1 y(2_4_2)
-200 x(2_4_2)
<= 0

c_u_constraints(102)_:
+1 y(2_4_3)
-200 x(2_4_3)
<= 0

c_u_constraints(103)_:
-200 x(3_1_1)
+1 y(3_1_1)
<= 0

c_u_constraints(104)_:
-200 x(3_1_2)
+1 y(3_1_2)
<= 0

c_u_constraints(105)_:
-200 x(3_1_3)
+1 y(3_1_3)
<= 0

c_u_constraints(106)_:
-200 x(3_2_1)
+1 y(3_2_1)
<= 0

c_u_constraints(107)_:
-200 x(3_2_2)
+1 y(3_2_2)
<= 0

c_u_constraints(108)_:
-200 x(3_2_3)
+1 y(3_2_3)
<= 0

c_u_constraints(109)_:
-200 x(3_3_1)
+1 y(3_3_1)
<= 0

c_u_constraints(110)_:
-200 x(3_3_2)
+1 y(3_3_2)
<= 0

c_u_constraints(111)_:
-200 x(3_3_3)
+1 y(3_3_3)
<= 0

c_u_constraints(112)_:
+1 y(3_4_1)
-200 x(3_4_1)
<= 0

c_u_constraints(113)_:
+1 y(3_4_2)
-200 x(3_4_2)
<= 0

c_u_constraints(114)_:
+1 y(3_4_3)
-200 x(3_4_3)
<= 0

c_u_constraints(115)_:
-200 x(4_1_1)
+1 y(4_1_1)
<= 0

c_u_constraints(116)_:
-200 x(4_1_2)
+1 y(4_1_2)
<= 0

c_u_constraints(117)_:
-200 x(4_1_3)
+1 y(4_1_3)
<= 0

c_u_constraints(118)_:
-200 x(4_2_1)
+1 y(4_2_1)
<= 0

c_u_constraints(119)_:
-200 x(4_2_2)
+1 y(4_2_2)
<= 0

c_u_constraints(120)_:
-200 x(4_2_3)
+1 y(4_2_3)
<= 0

c_u_constraints(121)_:
-200 x(4_3_1)
+1 y(4_3_1)
<= 0

c_u_constraints(122)_:
-200 x(4_3_2)
+1 y(4_3_2)
<= 0

c_u_constraints(123)_:
-200 x(4_3_3)
+1 y(4_3_3)
<= 0

c_u_constraints(124)_:
-200 x(4_4_1)
+1 y(4_4_1)
<= 0

c_u_constraints(125)_:
-200 x(4_4_2)
+1 y(4_4_2)
<= 0

c_u_constraints(126)_:
-200 x(4_4_3)
+1 y(4_4_3)
<= 0

c_u_constraints(127)_:
+1 y(1_1_1)
-1 d1(1_1_1)
<= 0

c_u_constraints(128)_:
+1 y(1_1_2)
-1 d1(1_1_2)
<= 0

c_u_constraints(129)_:
+1 y(1_1_3)
-1 d1(1_1_3)
<= 0

c_u_constraints(130)_:
+1 y(1_2_1)
-1 d1(1_2_1)
<= 0

c_u_constraints(131)_:
+1 y(1_2_2)
-1 d1(1_2_2)
<= 0

c_u_constraints(132)_:
+1 y(1_2_3)
-1 d1(1_2_3)
<= 0

c_u_constraints(133)_:
+1 y(1_3_1)
-1 d1(1_3_1)
<= 0

c_u_constraints(134)_:
+1 y(1_3_2)
-1 d1(1_3_2)
<= 0

c_u_constraints(135)_:
+1 y(1_3_3)
-1 d1(1_3_3)
<= 0

c_u_constraints(136)_:
+1 y(1_4_1)
-1 d1(1_4_1)
<= 0

c_u_constraints(137)_:
+1 y(1_4_2)
-1 d1(1_4_2)
<= 0

c_u_constraints(138)_:
+1 y(1_4_3)
-1 d1(1_4_3)
<= 0

c_u_constraints(139)_:
+1 y(2_1_1)
-1 d1(2_1_1)
<= 0

c_u_constraints(140)_:
+1 y(2_1_2)
-1 d1(2_1_2)
<= 0

c_u_constraints(141)_:
+1 y(2_1_3)
-1 d1(2_1_3)
<= 0

c_u_constraints(142)_:
+1 y(2_2_1)
-1 d1(2_2_1)
<= 0

c_u_constraints(143)_:
+1 y(2_2_2)
-1 d1(2_2_2)
<= 0

c_u_constraints(144)_:
+1 y(2_2_3)
-1 d1(2_2_3)
<= 0

c_u_constraints(145)_:
+1 y(2_3_1)
-1 d1(2_3_1)
<= 0

c_u_constraints(146)_:
+1 y(2_3_2)
-1 d1(2_3_2)
<= 0

c_u_constraints(147)_:
+1 y(2_3_3)
-1 d1(2_3_3)
<= 0

c_u_constraints(148)_:
+1 y(2_4_1)
-1 d1(2_4_1)
<= 0

c_u_constraints(149)_:
+1 y(2_4_2)
-1 d1(2_4_2)
<= 0

c_u_constraints(150)_:
+1 y(2_4_3)
-1 d1(2_4_3)
<= 0

c_u_constraints(151)_:
+1 y(3_1_1)
-1 d1(3_1_1)
<= 0

c_u_constraints(152)_:
+1 y(3_1_2)
-1 d1(3_1_2)
<= 0

c_u_constraints(153)_:
+1 y(3_1_3)
-1 d1(3_1_3)
<= 0

c_u_constraints(154)_:
+1 y(3_2_1)
-1 d1(3_2_1)
<= 0

c_u_constraints(155)_:
+1 y(3_2_2)
-1 d1(3_2_2)
<= 0

c_u_constraints(156)_:
+1 y(3_2_3)
-1 d1(3_2_3)
<= 0

c_u_constraints(157)_:
+1 y(3_3_1)
-1 d1(3_3_1)
<= 0

c_u_constraints(158)_:
+1 y(3_3_2)
-1 d1(3_3_2)
<= 0

c_u_constraints(159)_:
+1 y(3_3_3)
-1 d1(3_3_3)
<= 0

c_u_constraints(160)_:
+1 y(3_4_1)
-1 d1(3_4_1)
<= 0

c_u_constraints(161)_:
+1 y(3_4_2)
-1 d1(3_4_2)
<= 0

c_u_constraints(162)_:
+1 y(3_4_3)
-1 d1(3_4_3)
<= 0

c_u_constraints(163)_:
+1 y(4_1_1)
-1 d1(4_1_1)
<= 0

c_u_constraints(164)_:
+1 y(4_1_2)
-1 d1(4_1_2)
<= 0

c_u_constraints(165)_:
+1 y(4_1_3)
-1 d1(4_1_3)
<= 0

c_u_constraints(166)_:
+1 y(4_2_1)
-1 d1(4_2_1)
<= 0

c_u_constraints(167)_:
+1 y(4_2_2)
-1 d1(4_2_2)
<= 0

c_u_constraints(168)_:
+1 y(4_2_3)
-1 d1(4_2_3)
<= 0

c_u_constraints(169)_:
+1 y(4_3_1)
-1 d1(4_3_1)
<= 0

c_u_constraints(170)_:
+1 y(4_3_2)
-1 d1(4_3_2)
<= 0

c_u_constraints(171)_:
+1 y(4_3_3)
-1 d1(4_3_3)
<= 0

c_u_constraints(172)_:
+1 y(4_4_1)
-1 d1(4_4_1)
<= 0

c_u_constraints(173)_:
+1 y(4_4_2)
-1 d1(4_4_2)
<= 0

c_u_constraints(174)_:
+1 y(4_4_3)
-1 d1(4_4_3)
<= 0

c_u_constraints(175)_:
-200 x(1_1_1)
+1 z(1_1_1)
<= 0

c_u_constraints(176)_:
-200 x(1_1_2)
+1 z(1_1_2)
<= 0

c_u_constraints(177)_:
-200 x(1_1_3)
+1 z(1_1_3)
<= 0

c_u_constraints(178)_:
+1 z(1_2_1)
-200 x(1_2_1)
<= 0

c_u_constraints(179)_:
+1 z(1_2_2)
-200 x(1_2_2)
<= 0

c_u_constraints(180)_:
+1 z(1_2_3)
-200 x(1_2_3)
<= 0

c_u_constraints(181)_:
+1 z(1_3_1)
-200 x(1_3_1)
<= 0

c_u_constraints(182)_:
+1 z(1_3_2)
-200 x(1_3_2)
<= 0

c_u_constraints(183)_:
+1 z(1_3_3)
-200 x(1_3_3)
<= 0

c_u_constraints(184)_:
+1 z(1_4_1)
-200 x(1_4_1)
<= 0

c_u_constraints(185)_:
+1 z(1_4_2)
-200 x(1_4_2)
<= 0

c_u_constraints(186)_:
+1 z(1_4_3)
-200 x(1_4_3)
<= 0

c_u_constraints(187)_:
-200 x(2_1_1)
+1 z(2_1_1)
<= 0

c_u_constraints(188)_:
-200 x(2_1_2)
+1 z(2_1_2)
<= 0

c_u_constraints(189)_:
-200 x(2_1_3)
+1 z(2_1_3)
<= 0

c_u_constraints(190)_:
-200 x(2_2_1)
+1 z(2_2_1)
<= 0

c_u_constraints(191)_:
-200 x(2_2_2)
+1 z(2_2_2)
<= 0

c_u_constraints(192)_:
-200 x(2_2_3)
+1 z(2_2_3)
<= 0

c_u_constraints(193)_:
+1 z(2_3_1)
-200 x(2_3_1)
<= 0

c_u_constraints(194)_:
+1 z(2_3_2)
-200 x(2_3_2)
<= 0

c_u_constraints(195)_:
+1 z(2_3_3)
-200 x(2_3_3)
<= 0

c_u_constraints(196)_:
+1 z(2_4_1)
-200 x(2_4_1)
<= 0

c_u_constraints(197)_:
+1 z(2_4_2)
-200 x(2_4_2)
<= 0

c_u_constraints(198)_:
+1 z(2_4_3)
-200 x(2_4_3)
<= 0

c_u_constraints(199)_:
-200 x(3_1_1)
+1 z(3_1_1)
<= 0

c_u_constraints(200)_:
-200 x(3_1_2)
+1 z(3_1_2)
<= 0

c_u_constraints(201)_:
-200 x(3_1_3)
+1 z(3_1_3)
<= 0

c_u_constraints(202)_:
-200 x(3_2_1)
+1 z(3_2_1)
<= 0

c_u_constraints(203)_:
-200 x(3_2_2)
+1 z(3_2_2)
<= 0

c_u_constraints(204)_:
-200 x(3_2_3)
+1 z(3_2_3)
<= 0

c_u_constraints(205)_:
-200 x(3_3_1)
+1 z(3_3_1)
<= 0

c_u_constraints(206)_:
-200 x(3_3_2)
+1 z(3_3_2)
<= 0

c_u_constraints(207)_:
-200 x(3_3_3)
+1 z(3_3_3)
<= 0

c_u_constraints(208)_:
+1 z(3_4_1)
-200 x(3_4_1)
<= 0

c_u_constraints(209)_:
+1 z(3_4_2)
-200 x(3_4_2)
<= 0

c_u_constraints(210)_:
+1 z(3_4_3)
-200 x(3_4_3)
<= 0

c_u_constraints(211)_:
-200 x(4_1_1)
+1 z(4_1_1)
<= 0

c_u_constraints(212)_:
-200 x(4_1_2)
+1 z(4_1_2)
<= 0

c_u_constraints(213)_:
-200 x(4_1_3)
+1 z(4_1_3)
<= 0

c_u_constraints(214)_:
-200 x(4_2_1)
+1 z(4_2_1)
<= 0

c_u_constraints(215)_:
-200 x(4_2_2)
+1 z(4_2_2)
<= 0

c_u_constraints(216)_:
-200 x(4_2_3)
+1 z(4_2_3)
<= 0

c_u_constraints(217)_:
-200 x(4_3_1)
+1 z(4_3_1)
<= 0

c_u_constraints(218)_:
-200 x(4_3_2)
+1 z(4_3_2)
<= 0

c_u_constraints(219)_:
-200 x(4_3_3)
+1 z(4_3_3)
<= 0

c_u_constraints(220)_:
-200 x(4_4_1)
+1 z(4_4_1)
<= 0

c_u_constraints(221)_:
-200 x(4_4_2)
+1 z(4_4_2)
<= 0

c_u_constraints(222)_:
-200 x(4_4_3)
+1 z(4_4_3)
<= 0

c_u_constraints(223)_:
+1 z(1_1_1)
-1 d2(1_1_1)
<= 0

c_u_constraints(224)_:
+1 z(1_1_2)
-1 d2(1_1_2)
<= 0

c_u_constraints(225)_:
+1 z(1_1_3)
-1 d2(1_1_3)
<= 0

c_u_constraints(226)_:
+1 z(1_2_1)
-1 d2(1_2_1)
<= 0

c_u_constraints(227)_:
+1 z(1_2_2)
-1 d2(1_2_2)
<= 0

c_u_constraints(228)_:
+1 z(1_2_3)
-1 d2(1_2_3)
<= 0

c_u_constraints(229)_:
+1 z(1_3_1)
-1 d2(1_3_1)
<= 0

c_u_constraints(230)_:
+1 z(1_3_2)
-1 d2(1_3_2)
<= 0

c_u_constraints(231)_:
+1 z(1_3_3)
-1 d2(1_3_3)
<= 0

c_u_constraints(232)_:
+1 z(1_4_1)
-1 d2(1_4_1)
<= 0

c_u_constraints(233)_:
+1 z(1_4_2)
-1 d2(1_4_2)
<= 0

c_u_constraints(234)_:
+1 z(1_4_3)
-1 d2(1_4_3)
<= 0

c_u_constraints(235)_:
+1 z(2_1_1)
-1 d2(2_1_1)
<= 0

c_u_constraints(236)_:
+1 z(2_1_2)
-1 d2(2_1_2)
<= 0

c_u_constraints(237)_:
+1 z(2_1_3)
-1 d2(2_1_3)
<= 0

c_u_constraints(238)_:
+1 z(2_2_1)
-1 d2(2_2_1)
<= 0

c_u_constraints(239)_:
+1 z(2_2_2)
-1 d2(2_2_2)
<= 0

c_u_constraints(240)_:
+1 z(2_2_3)
-1 d2(2_2_3)
<= 0

c_u_constraints(241)_:
+1 z(2_3_1)
-1 d2(2_3_1)
<= 0

c_u_constraints(242)_:
+1 z(2_3_2)
-1 d2(2_3_2)
<= 0

c_u_constraints(243)_:
+1 z(2_3_3)
-1 d2(2_3_3)
<= 0

c_u_constraints(244)_:
+1 z(2_4_1)
-1 d2(2_4_1)
<= 0

c_u_constraints(245)_:
+1 z(2_4_2)
-1 d2(2_4_2)
<= 0

c_u_constraints(246)_:
+1 z(2_4_3)
-1 d2(2_4_3)
<= 0

c_u_constraints(247)_:
+1 z(3_1_1)
-1 d2(3_1_1)
<= 0

c_u_constraints(248)_:
+1 z(3_1_2)
-1 d2(3_1_2)
<= 0

c_u_constraints(249)_:
+1 z(3_1_3)
-1 d2(3_1_3)
<= 0

c_u_constraints(250)_:
+1 z(3_2_1)
-1 d2(3_2_1)
<= 0

c_u_constraints(251)_:
+1 z(3_2_2)
-1 d2(3_2_2)
<= 0

c_u_constraints(252)_:
+1 z(3_2_3)
-1 d2(3_2_3)
<= 0

c_u_constraints(253)_:
+1 z(3_3_1)
-1 d2(3_3_1)
<= 0

c_u_constraints(254)_:
+1 z(3_3_2)
-1 d2(3_3_2)
<= 0

c_u_constraints(255)_:
+1 z(3_3_3)
-1 d2(3_3_3)
<= 0

c_u_constraints(256)_:
+1 z(3_4_1)
-1 d2(3_4_1)
<= 0

c_u_constraints(257)_:
+1 z(3_4_2)
-1 d2(3_4_2)
<= 0

c_u_constraints(258)_:
+1 z(3_4_3)
-1 d2(3_4_3)
<= 0

c_u_constraints(259)_:
+1 z(4_1_1)
-1 d2(4_1_1)
<= 0

c_u_constraints(260)_:
+1 z(4_1_2)
-1 d2(4_1_2)
<= 0

c_u_constraints(261)_:
+1 z(4_1_3)
-1 d2(4_1_3)
<= 0

c_u_constraints(262)_:
+1 z(4_2_1)
-1 d2(4_2_1)
<= 0

c_u_constraints(263)_:
+1 z(4_2_2)
-1 d2(4_2_2)
<= 0

c_u_constraints(264)_:
+1 z(4_2_3)
-1 d2(4_2_3)
<= 0

c_u_constraints(265)_:
+1 z(4_3_1)
-1 d2(4_3_1)
<= 0

c_u_constraints(266)_:
+1 z(4_3_2)
-1 d2(4_3_2)
<= 0

c_u_constraints(267)_:
+1 z(4_3_3)
-1 d2(4_3_3)
<= 0

c_u_constraints(268)_:
+1 z(4_4_1)
-1 d2(4_4_1)
<= 0

c_u_constraints(269)_:
+1 z(4_4_2)
-1 d2(4_4_2)
<= 0

c_u_constraints(270)_:
+1 z(4_4_3)
-1 d2(4_4_3)
<= 0

c_u_constraints(271)_:
+200 x(1_1_1)
-1 y(1_1_1)
+1 d1(1_1_1)
<= 200

c_u_constraints(272)_:
+200 x(1_1_2)
-1 y(1_1_2)
+1 d1(1_1_2)
<= 200

c_u_constraints(273)_:
+200 x(1_1_3)
-1 y(1_1_3)
+1 d1(1_1_3)
<= 200

c_u_constraints(274)_:
-1 y(1_2_1)
+200 x(1_2_1)
+1 d1(1_2_1)
<= 200

c_u_constraints(275)_:
-1 y(1_2_2)
+200 x(1_2_2)
+1 d1(1_2_2)
<= 200

c_u_constraints(276)_:
-1 y(1_2_3)
+200 x(1_2_3)
+1 d1(1_2_3)
<= 200

c_u_constraints(277)_:
-1 y(1_3_1)
+200 x(1_3_1)
+1 d1(1_3_1)
<= 200

c_u_constraints(278)_:
-1 y(1_3_2)
+200 x(1_3_2)
+1 d1(1_3_2)
<= 200

c_u_constraints(279)_:
-1 y(1_3_3)
+200 x(1_3_3)
+1 d1(1_3_3)
<= 200

c_u_constraints(280)_:
-1 y(1_4_1)
+200 x(1_4_1)
+1 d1(1_4_1)
<= 200

c_u_constraints(281)_:
-1 y(1_4_2)
+200 x(1_4_2)
+1 d1(1_4_2)
<= 200

c_u_constraints(282)_:
-1 y(1_4_3)
+200 x(1_4_3)
+1 d1(1_4_3)
<= 200

c_u_constraints(283)_:
+200 x(2_1_1)
-1 y(2_1_1)
+1 d1(2_1_1)
<= 200

c_u_constraints(284)_:
+200 x(2_1_2)
-1 y(2_1_2)
+1 d1(2_1_2)
<= 200

c_u_constraints(285)_:
+200 x(2_1_3)
-1 y(2_1_3)
+1 d1(2_1_3)
<= 200

c_u_constraints(286)_:
+200 x(2_2_1)
-1 y(2_2_1)
+1 d1(2_2_1)
<= 200

c_u_constraints(287)_:
+200 x(2_2_2)
-1 y(2_2_2)
+1 d1(2_2_2)
<= 200

c_u_constraints(288)_:
+200 x(2_2_3)
-1 y(2_2_3)
+1 d1(2_2_3)
<= 200

c_u_constraints(289)_:
-1 y(2_3_1)
+200 x(2_3_1)
+1 d1(2_3_1)
<= 200

c_u_constraints(290)_:
-1 y(2_3_2)
+200 x(2_3_2)
+1 d1(2_3_2)
<= 200

c_u_constraints(291)_:
-1 y(2_3_3)
+200 x(2_3_3)
+1 d1(2_3_3)
<= 200

c_u_constraints(292)_:
-1 y(2_4_1)
+200 x(2_4_1)
+1 d1(2_4_1)
<= 200

c_u_constraints(293)_:
-1 y(2_4_2)
+200 x(2_4_2)
+1 d1(2_4_2)
<= 200

c_u_constraints(294)_:
-1 y(2_4_3)
+200 x(2_4_3)
+1 d1(2_4_3)
<= 200

c_u_constraints(295)_:
+200 x(3_1_1)
-1 y(3_1_1)
+1 d1(3_1_1)
<= 200

c_u_constraints(296)_:
+200 x(3_1_2)
-1 y(3_1_2)
+1 d1(3_1_2)
<= 200

c_u_constraints(297)_:
+200 x(3_1_3)
-1 y(3_1_3)
+1 d1(3_1_3)
<= 200

c_u_constraints(298)_:
+200 x(3_2_1)
-1 y(3_2_1)
+1 d1(3_2_1)
<= 200

c_u_constraints(299)_:
+200 x(3_2_2)
-1 y(3_2_2)
+1 d1(3_2_2)
<= 200

c_u_constraints(300)_:
+200 x(3_2_3)
-1 y(3_2_3)
+1 d1(3_2_3)
<= 200

c_u_constraints(301)_:
+200 x(3_3_1)
-1 y(3_3_1)
+1 d1(3_3_1)
<= 200

c_u_constraints(302)_:
+200 x(3_3_2)
-1 y(3_3_2)
+1 d1(3_3_2)
<= 200

c_u_constraints(303)_:
+200 x(3_3_3)
-1 y(3_3_3)
+1 d1(3_3_3)
<= 200

c_u_constraints(304)_:
-1 y(3_4_1)
+200 x(3_4_1)
+1 d1(3_4_1)
<= 200

c_u_constraints(305)_:
-1 y(3_4_2)
+200 x(3_4_2)
+1 d1(3_4_2)
<= 200

c_u_constraints(306)_:
-1 y(3_4_3)
+200 x(3_4_3)
+1 d1(3_4_3)
<= 200

c_u_constraints(307)_:
+200 x(4_1_1)
-1 y(4_1_1)
+1 d1(4_1_1)
<= 200

c_u_constraints(308)_:
+200 x(4_1_2)
-1 y(4_1_2)
+1 d1(4_1_2)
<= 200

c_u_constraints(309)_:
+200 x(4_1_3)
-1 y(4_1_3)
+1 d1(4_1_3)
<= 200

c_u_constraints(310)_:
+200 x(4_2_1)
-1 y(4_2_1)
+1 d1(4_2_1)
<= 200

c_u_constraints(311)_:
+200 x(4_2_2)
-1 y(4_2_2)
+1 d1(4_2_2)
<= 200

c_u_constraints(312)_:
+200 x(4_2_3)
-1 y(4_2_3)
+1 d1(4_2_3)
<= 200

c_u_constraints(313)_:
+200 x(4_3_1)
-1 y(4_3_1)
+1 d1(4_3_1)
<= 200

c_u_constraints(314)_:
+200 x(4_3_2)
-1 y(4_3_2)
+1 d1(4_3_2)
<= 200

c_u_constraints(315)_:
+200 x(4_3_3)
-1 y(4_3_3)
+1 d1(4_3_3)
<= 200

c_u_constraints(316)_:
+200 x(4_4_1)
-1 y(4_4_1)
+1 d1(4_4_1)
<= 200

c_u_constraints(317)_:
+200 x(4_4_2)
-1 y(4_4_2)
+1 d1(4_4_2)
<= 200

c_u_constraints(318)_:
+200 x(4_4_3)
-1 y(4_4_3)
+1 d1(4_4_3)
<= 200

c_u_constraints(319)_:
+200 x(1_1_1)
-1 z(1_1_1)
+1 d2(1_1_1)
<= 200

c_u_constraints(320)_:
+200 x(1_1_2)
-1 z(1_1_2)
+1 d2(1_1_2)
<= 200

c_u_constraints(321)_:
+200 x(1_1_3)
-1 z(1_1_3)
+1 d2(1_1_3)
<= 200

c_u_constraints(322)_:
-1 z(1_2_1)
+200 x(1_2_1)
+1 d2(1_2_1)
<= 200

c_u_constraints(323)_:
-1 z(1_2_2)
+200 x(1_2_2)
+1 d2(1_2_2)
<= 200

c_u_constraints(324)_:
-1 z(1_2_3)
+200 x(1_2_3)
+1 d2(1_2_3)
<= 200

c_u_constraints(325)_:
-1 z(1_3_1)
+200 x(1_3_1)
+1 d2(1_3_1)
<= 200

c_u_constraints(326)_:
-1 z(1_3_2)
+200 x(1_3_2)
+1 d2(1_3_2)
<= 200

c_u_constraints(327)_:
-1 z(1_3_3)
+200 x(1_3_3)
+1 d2(1_3_3)
<= 200

c_u_constraints(328)_:
-1 z(1_4_1)
+200 x(1_4_1)
+1 d2(1_4_1)
<= 200

c_u_constraints(329)_:
-1 z(1_4_2)
+200 x(1_4_2)
+1 d2(1_4_2)
<= 200

c_u_constraints(330)_:
-1 z(1_4_3)
+200 x(1_4_3)
+1 d2(1_4_3)
<= 200

c_u_constraints(331)_:
+200 x(2_1_1)
-1 z(2_1_1)
+1 d2(2_1_1)
<= 200

c_u_constraints(332)_:
+200 x(2_1_2)
-1 z(2_1_2)
+1 d2(2_1_2)
<= 200

c_u_constraints(333)_:
+200 x(2_1_3)
-1 z(2_1_3)
+1 d2(2_1_3)
<= 200

c_u_constraints(334)_:
+200 x(2_2_1)
-1 z(2_2_1)
+1 d2(2_2_1)
<= 200

c_u_constraints(335)_:
+200 x(2_2_2)
-1 z(2_2_2)
+1 d2(2_2_2)
<= 200

c_u_constraints(336)_:
+200 x(2_2_3)
-1 z(2_2_3)
+1 d2(2_2_3)
<= 200

c_u_constraints(337)_:
-1 z(2_3_1)
+200 x(2_3_1)
+1 d2(2_3_1)
<= 200

c_u_constraints(338)_:
-1 z(2_3_2)
+200 x(2_3_2)
+1 d2(2_3_2)
<= 200

c_u_constraints(339)_:
-1 z(2_3_3)
+200 x(2_3_3)
+1 d2(2_3_3)
<= 200

c_u_constraints(340)_:
-1 z(2_4_1)
+200 x(2_4_1)
+1 d2(2_4_1)
<= 200

c_u_constraints(341)_:
-1 z(2_4_2)
+200 x(2_4_2)
+1 d2(2_4_2)
<= 200

c_u_constraints(342)_:
-1 z(2_4_3)
+200 x(2_4_3)
+1 d2(2_4_3)
<= 200

c_u_constraints(343)_:
+200 x(3_1_1)
-1 z(3_1_1)
+1 d2(3_1_1)
<= 200

c_u_constraints(344)_:
+200 x(3_1_2)
-1 z(3_1_2)
+1 d2(3_1_2)
<= 200

c_u_constraints(345)_:
+200 x(3_1_3)
-1 z(3_1_3)
+1 d2(3_1_3)
<= 200

c_u_constraints(346)_:
+200 x(3_2_1)
-1 z(3_2_1)
+1 d2(3_2_1)
<= 200

c_u_constraints(347)_:
+200 x(3_2_2)
-1 z(3_2_2)
+1 d2(3_2_2)
<= 200

c_u_constraints(348)_:
+200 x(3_2_3)
-1 z(3_2_3)
+1 d2(3_2_3)
<= 200

c_u_constraints(349)_:
+200 x(3_3_1)
-1 z(3_3_1)
+1 d2(3_3_1)
<= 200

c_u_constraints(350)_:
+200 x(3_3_2)
-1 z(3_3_2)
+1 d2(3_3_2)
<= 200

c_u_constraints(351)_:
+200 x(3_3_3)
-1 z(3_3_3)
+1 d2(3_3_3)
<= 200

c_u_constraints(352)_:
-1 z(3_4_1)
+200 x(3_4_1)
+1 d2(3_4_1)
<= 200

c_u_constraints(353)_:
-1 z(3_4_2)
+200 x(3_4_2)
+1 d2(3_4_2)
<= 200

c_u_constraints(354)_:
-1 z(3_4_3)
+200 x(3_4_3)
+1 d2(3_4_3)
<= 200

c_u_constraints(355)_:
+200 x(4_1_1)
-1 z(4_1_1)
+1 d2(4_1_1)
<= 200

c_u_constraints(356)_:
+200 x(4_1_2)
-1 z(4_1_2)
+1 d2(4_1_2)
<= 200

c_u_constraints(357)_:
+200 x(4_1_3)
-1 z(4_1_3)
+1 d2(4_1_3)
<= 200

c_u_constraints(358)_:
+200 x(4_2_1)
-1 z(4_2_1)
+1 d2(4_2_1)
<= 200

c_u_constraints(359)_:
+200 x(4_2_2)
-1 z(4_2_2)
+1 d2(4_2_2)
<= 200

c_u_constraints(360)_:
+200 x(4_2_3)
-1 z(4_2_3)
+1 d2(4_2_3)
<= 200

c_u_constraints(361)_:
+200 x(4_3_1)
-1 z(4_3_1)
+1 d2(4_3_1)
<= 200

c_u_constraints(362)_:
+200 x(4_3_2)
-1 z(4_3_2)
+1 d2(4_3_2)
<= 200

c_u_constraints(363)_:
+200 x(4_3_3)
-1 z(4_3_3)
+1 d2(4_3_3)
<= 200

c_u_constraints(364)_:
+200 x(4_4_1)
-1 z(4_4_1)
+1 d2(4_4_1)
<= 200

c_u_constraints(365)_:
+200 x(4_4_2)
-1 z(4_4_2)
+1 d2(4_4_2)
<= 200

c_u_constraints(366)_:
+200 x(4_4_3)
-1 z(4_4_3)
+1 d2(4_4_3)
<= 200

bounds
   0 <= y(1_2_1) <= +inf
   0 <= z(1_2_1) <= +inf
   0 <= y(1_2_2) <= +inf
   0 <= z(1_2_2) <= +inf
   0 <= y(1_2_3) <= +inf
   0 <= z(1_2_3) <= +inf
   0 <= y(1_3_1) <= +inf
   0 <= z(1_3_1) <= +inf
   0 <= y(1_3_2) <= +inf
   0 <= z(1_3_2) <= +inf
   0 <= y(1_3_3) <= +inf
   0 <= z(1_3_3) <= +inf
   0 <= y(1_4_1) <= +inf
   0 <= z(1_4_1) <= +inf
   0 <= y(1_4_2) <= +inf
   0 <= z(1_4_2) <= +inf
   0 <= y(1_4_3) <= +inf
   0 <= z(1_4_3) <= +inf
   0 <= y(2_3_1) <= +inf
   0 <= z(2_3_1) <= +inf
   0 <= y(2_3_2) <= +inf
   0 <= z(2_3_2) <= +inf
   0 <= y(2_3_3) <= +inf
   0 <= z(2_3_3) <= +inf
   0 <= y(2_4_1) <= +inf
   0 <= z(2_4_1) <= +inf
   0 <= y(2_4_2) <= +inf
   0 <= z(2_4_2) <= +inf
   0 <= y(2_4_3) <= +inf
   0 <= z(2_4_3) <= +inf
   0 <= y(3_4_1) <= +inf
   0 <= z(3_4_1) <= +inf
   0 <= y(3_4_2) <= +inf
   0 <= z(3_4_2) <= +inf
   0 <= y(3_4_3) <= +inf
   0 <= z(3_4_3) <= +inf
   0 <= x(1_1_1) <= 1
   0 <= x(1_1_2) <= 1
   0 <= x(1_1_3) <= 1
   0 <= x(2_1_1) <= 1
   0 <= x(2_1_2) <= 1
   0 <= x(2_1_3) <= 1
   0 <= x(2_2_1) <= 1
   0 <= x(2_2_2) <= 1
   0 <= x(2_2_3) <= 1
   0 <= x(3_1_1) <= 1
   0 <= x(3_1_2) <= 1
   0 <= x(3_1_3) <= 1
   0 <= x(3_2_1) <= 1
   0 <= x(3_2_2) <= 1
   0 <= x(3_2_3) <= 1
   0 <= x(3_3_1) <= 1
   0 <= x(3_3_2) <= 1
   0 <= x(3_3_3) <= 1
   0 <= x(4_1_1) <= 1
   0 <= x(4_1_2) <= 1
   0 <= x(4_1_3) <= 1
   0 <= x(4_2_1) <= 1
   0 <= x(4_2_2) <= 1
   0 <= x(4_2_3) <= 1
   0 <= x(4_3_1) <= 1
   0 <= x(4_3_2) <= 1
   0 <= x(4_3_3) <= 1
   0 <= x(4_4_1) <= 1
   0 <= x(4_4_2) <= 1
   0 <= x(4_4_3) <= 1
   0 <= x(1_2_1) <= 1
   0 <= x(1_2_2) <= 1
   0 <= x(1_2_3) <= 1
   0 <= x(1_3_1) <= 1
   0 <= x(1_3_2) <= 1
   0 <= x(1_3_3) <= 1
   0 <= x(1_4_1) <= 1
   0 <= x(1_4_2) <= 1
   0 <= x(1_4_3) <= 1
   0 <= x(2_3_1) <= 1
   0 <= x(2_3_2) <= 1
   0 <= x(2_3_3) <= 1
   0 <= x(2_4_1) <= 1
   0 <= x(2_4_2) <= 1
   0 <= x(2_4_3) <= 1
   0 <= x(3_4_1) <= 1
   0 <= x(3_4_2) <= 1
   0 <= x(3_4_3) <= 1
   0 <= d1(1_2_1) <= +inf
   0 <= d2(1_2_1) <= +inf
   0 <= d1(1_2_2) <= +inf
   0 <= d2(1_2_2) <= +inf
   0 <= d1(1_2_3) <= +inf
   0 <= d2(1_2_3) <= +inf
   0 <= d1(1_3_1) <= +inf
   0 <= d2(1_3_1) <= +inf
   0 <= d1(1_3_2) <= +inf
   0 <= d2(1_3_2) <= +inf
   0 <= d1(1_3_3) <= +inf
   0 <= d2(1_3_3) <= +inf
   0 <= d1(1_4_1) <= +inf
   0 <= d2(1_4_1) <= +inf
   0 <= d1(1_4_2) <= +inf
   0 <= d2(1_4_2) <= +inf
   0 <= d1(1_4_3) <= +inf
   0 <= d2(1_4_3) <= +inf
   0 <= d1(2_3_1) <= +inf
   0 <= d2(2_3_1) <= +inf
   0 <= d1(2_3_2) <= +inf
   0 <= d2(2_3_2) <= +inf
   0 <= d1(2_3_3) <= +inf
   0 <= d2(2_3_3) <= +inf
   0 <= d1(2_4_1) <= +inf
   0 <= d2(2_4_1) <= +inf
   0 <= d1(2_4_2) <= +inf
   0 <= d2(2_4_2) <= +inf
   0 <= d1(2_4_3) <= +inf
   0 <= d2(2_4_3) <= +inf
   0 <= d1(3_4_1) <= +inf
   0 <= d2(3_4_1) <= +inf
   0 <= d1(3_4_2) <= +inf
   0 <= d2(3_4_2) <= +inf
   0 <= d1(3_4_3) <= +inf
   0 <= d2(3_4_3) <= +inf
   0 <= y(1_1_1) <= +inf
   0 <= y(1_1_2) <= +inf
   0 <= y(1_1_3) <= +inf
   0 <= y(2_1_1) <= +inf
   0 <= y(2_1_2) <= +inf
   0 <= y(2_1_3) <= +inf
   0 <= y(2_2_1) <= +inf
   0 <= y(2_2_2) <= +inf
   0 <= y(2_2_3) <= +inf
   0 <= y(3_1_1) <= +inf
   0 <= y(3_1_2) <= +inf
   0 <= y(3_1_3) <= +inf
   0 <= y(3_2_1) <= +inf
   0 <= y(3_2_2) <= +inf
   0 <= y(3_2_3) <= +inf
   0 <= y(3_3_1) <= +inf
   0 <= y(3_3_2) <= +inf
   0 <= y(3_3_3) <= +inf
   0 <= y(4_1_1) <= +inf
   0 <= y(4_1_2) <= +inf
   0 <= y(4_1_3) <= +inf
   0 <= y(4_2_1) <= +inf
   0 <= y(4_2_2) <= +inf
   0 <= y(4_2_3) <= +inf
   0 <= y(4_3_1) <= +inf
   0 <= y(4_3_2) <= +inf
   0 <= y(4_3_3) <= +inf
   0 <= y(4_4_1) <= +inf
   0 <= y(4_4_2) <= +inf
   0 <= y(4_4_3) <= +inf
   0 <= d1(1_1_1) <= +inf
   0 <= d1(1_1_2) <= +inf
   0 <= d1(1_1_3) <= +inf
   0 <= d1(2_1_1) <= +inf
   0 <= d1(2_1_2) <= +inf
   0 <= d1(2_1_3) <= +inf
   0 <= d1(2_2_1) <= +inf
   0 <= d1(2_2_2) <= +inf
   0 <= d1(2_2_3) <= +inf
   0 <= d1(3_1_1) <= +inf
   0 <= d1(3_1_2) <= +inf
   0 <= d1(3_1_3) <= +inf
   0 <= d1(3_2_1) <= +inf
   0 <= d1(3_2_2) <= +inf
   0 <= d1(3_2_3) <= +inf
   0 <= d1(3_3_1) <= +inf
   0 <= d1(3_3_2) <= +inf
   0 <= d1(3_3_3) <= +inf
   0 <= d1(4_1_1) <= +inf
   0 <= d1(4_1_2) <= +inf
   0 <= d1(4_1_3) <= +inf
   0 <= d1(4_2_1) <= +inf
   0 <= d1(4_2_2) <= +inf
   0 <= d1(4_2_3) <= +inf
   0 <= d1(4_3_1) <= +inf
   0 <= d1(4_3_2) <= +inf
   0 <= d1(4_3_3) <= +inf
   0 <= d1(4_4_1) <= +inf
   0 <= d1(4_4_2) <= +inf
   0 <= d1(4_4_3) <= +inf
   0 <= z(1_1_1) <= +inf
   0 <= z(1_1_2) <= +inf
   0 <= z(1_1_3) <= +inf
   0 <= z(2_1_1) <= +inf
   0 <= z(2_1_2) <= +inf
   0 <= z(2_1_3) <= +inf
   0 <= z(2_2_1) <= +inf
   0 <= z(2_2_2) <= +inf
   0 <= z(2_2_3) <= +inf
   0 <= z(3_1_1) <= +inf
   0 <= z(3_1_2) <= +inf
   0 <= z(3_1_3) <= +inf
   0 <= z(3_2_1) <= +inf
   0 <= z(3_2_2) <= +inf
   0 <= z(3_2_3) <= +inf
   0 <= z(3_3_1) <= +inf
   0 <= z(3_3_2) <= +inf
   0 <= z(3_3_3) <= +inf
   0 <= z(4_1_1) <= +inf
   0 <= z(4_1_2) <= +inf
   0 <= z(4_1_3) <= +inf
   0 <= z(4_2_1) <= +inf
   0 <= z(4_2_2) <= +inf
   0 <= z(4_2_3) <= +inf
   0 <= z(4_3_1) <= +inf
   0 <= z(4_3_2) <= +inf
   0 <= z(4_3_3) <= +inf
   0 <= z(4_4_1) <= +inf
   0 <= z(4_4_2) <= +inf
   0 <= z(4_4_3) <= +inf
   0 <= d2(1_1_1) <= +inf
   0 <= d2(1_1_2) <= +inf
   0 <= d2(1_1_3) <= +inf
   0 <= d2(2_1_1) <= +inf
   0 <= d2(2_1_2) <= +inf
   0 <= d2(2_1_3) <= +inf
   0 <= d2(2_2_1) <= +inf
   0 <= d2(2_2_2) <= +inf
   0 <= d2(2_2_3) <= +inf
   0 <= d2(3_1_1) <= +inf
   0 <= d2(3_1_2) <= +inf
   0 <= d2(3_1_3) <= +inf
   0 <= d2(3_2_1) <= +inf
   0 <= d2(3_2_2) <= +inf
   0 <= d2(3_2_3) <= +inf
   0 <= d2(3_3_1) <= +inf
   0 <= d2(3_3_2) <= +inf
   0 <= d2(3_3_3) <= +inf
   0 <= d2(4_1_1) <= +inf
   0 <= d2(4_1_2) <= +inf
   0 <= d2(4_1_3) <= +inf
   0 <= d2(4_2_1) <= +inf
   0 <= d2(4_2_2) <= +inf
   0 <= d2(4_2_3) <= +inf
   0 <= d2(4_3_1) <= +inf
   0 <= d2(4_3_2) <= +inf
   0 <= d2(4_3_3) <= +inf
   0 <= d2(4_4_1) <= +inf
   0 <= d2(4_4_2) <= +inf
   0 <= d2(4_4_3) <= +inf
general
  d1(1_2_1)
  d2(1_2_1)
  d1(1_2_2)
  d2(1_2_2)
  d1(1_2_3)
  d2(1_2_3)
  d1(1_3_1)
  d2(1_3_1)
  d1(1_3_2)
  d2(1_3_2)
  d1(1_3_3)
  d2(1_3_3)
  d1(1_4_1)
  d2(1_4_1)
  d1(1_4_2)
  d2(1_4_2)
  d1(1_4_3)
  d2(1_4_3)
  d1(2_3_1)
  d2(2_3_1)
  d1(2_3_2)
  d2(2_3_2)
  d1(2_3_3)
  d2(2_3_3)
  d1(2_4_1)
  d2(2_4_1)
  d1(2_4_2)
  d2(2_4_2)
  d1(2_4_3)
  d2(2_4_3)
  d1(3_4_1)
  d2(3_4_1)
  d1(3_4_2)
  d2(3_4_2)
  d1(3_4_3)
  d2(3_4_3)
  d1(1_1_1)
  d1(1_1_2)
  d1(1_1_3)
  d1(2_1_1)
  d1(2_1_2)
  d1(2_1_3)
  d1(2_2_1)
  d1(2_2_2)
  d1(2_2_3)
  d1(3_1_1)
  d1(3_1_2)
  d1(3_1_3)
  d1(3_2_1)
  d1(3_2_2)
  d1(3_2_3)
  d1(3_3_1)
  d1(3_3_2)
  d1(3_3_3)
  d1(4_1_1)
  d1(4_1_2)
  d1(4_1_3)
  d1(4_2_1)
  d1(4_2_2)
  d1(4_2_3)
  d1(4_3_1)
  d1(4_3_2)
  d1(4_3_3)
  d1(4_4_1)
  d1(4_4_2)
  d1(4_4_3)
  d2(1_1_1)
  d2(1_1_2)
  d2(1_1_3)
  d2(2_1_1)
  d2(2_1_2)
  d2(2_1_3)
  d2(2_2_1)
  d2(2_2_2)
  d2(2_2_3)
  d2(3_1_1)
  d2(3_1_2)
  d2(3_1_3)
  d2(3_2_1)
  d2(3_2_2)
  d2(3_2_3)
  d2(3_3_1)
  d2(3_3_2)
  d2(3_3_3)
  d2(4_1_1)
  d2(4_1_2)
  d2(4_1_3)
  d2(4_2_1)
  d2(4_2_2)
  d2(4_2_3)
  d2(4_3_1)
  d2(4_3_2)
  d2(4_3_3)
  d2(4_4_1)
  d2(4_4_2)
  d2(4_4_3)
binary
  x(1_1_1)
  x(1_1_2)
  x(1_1_3)
  x(2_1_1)
  x(2_1_2)
  x(2_1_3)
  x(2_2_1)
  x(2_2_2)
  x(2_2_3)
  x(3_1_1)
  x(3_1_2)
  x(3_1_3)
  x(3_2_1)
  x(3_2_2)
  x(3_2_3)
  x(3_3_1)
  x(3_3_2)
  x(3_3_3)
  x(4_1_1)
  x(4_1_2)
  x(4_1_3)
  x(4_2_1)
  x(4_2_2)
  x(4_2_3)
  x(4_3_1)
  x(4_3_2)
  x(4_3_3)
  x(4_4_1)
  x(4_4_2)
  x(4_4_3)
  x(1_2_1)
  x(1_2_2)
  x(1_2_3)
  x(1_3_1)
  x(1_3_2)
  x(1_3_3)
  x(1_4_1)
  x(1_4_2)
  x(1_4_3)
  x(2_3_1)
  x(2_3_2)
  x(2_3_3)
  x(2_4_1)
  x(2_4_2)
  x(2_4_3)
  x(3_4_1)
  x(3_4_2)
  x(3_4_3)
end
